c---------
c Step 1
c---------
p wcnf 382 421 414
414 1 2 0
414 -1 -2 0
414 3 4 0
414 -3 -4 0
414 5 6 0
414 -5 -6 0
414 7 8 0
414 -7 -8 0
1 -5 41 0
1 -5 42 0
1 -4 43 0
1 -5 43 0
1 -5 56 0
1 -5 59 0
1 -5 68 0
1 -5 69 0
1 -5 71 0
1 -5 74 0
1 -5 75 0
1 -5 85 0
1 -5 89 0
1 -5 96 0
1 -5 104 0
1 -5 105 0
1 -5 106 0
1 -5 107 0
1 -5 115 0
1 -5 116 0
1 -5 117 0
1 -5 125 0
1 -5 126 0
1 -5 127 0
1 -5 130 0
1 -5 131 0
1 -5 138 0
1 -5 139 0
1 -5 140 0
1 -5 150 0
1 -5 151 0
1 -5 162 0
1 -5 164 0
1 -2 171 0
1 -2 172 0
1 -5 177 0
1 -5 178 0
1 -5 179 0
1 -5 180 0
1 -5 185 0
1 -5 186 0
1 -5 188 0
1 -5 189 0
1 -5 190 0
1 -2 197 0
1 -5 206 0
1 -5 208 0
1 -5 209 0
1 -5 210 0
1 -5 211 0
1 -5 214 0
1 -5 215 0
1 -5 216 0
1 -5 219 0
1 -5 239 0
1 -5 240 0
1 -5 241 0
1 -5 242 0
1 -5 243 0
1 -5 246 0
1 -5 247 0
1 -5 248 0
1 -5 270 0
1 -5 271 0
1 -5 272 0
1 -5 273 0
1 -5 274 0
1 -5 275 0
1 -5 276 0
1 -5 297 0
1 -5 298 0
1 -1 299 0
1 -5 299 0
1 -5 300 0
1 -5 308 0
1 -5 309 0
1 -5 310 0
1 -4 311 0
1 -5 311 0
1 -4 312 0
1 -5 312 0
1 -4 319 0
1 -5 319 0
1 -5 320 0
1 -5 330 0
1 -5 331 0
1 -5 332 0
1 -1 333 0
1 -5 333 0
1 -5 334 0
1 -5 335 0
1 -5 339 0
1 -5 341 0
1 -5 342 0
1 -5 343 0
1 -5 344 0
1 -4 345 0
1 -5 345 0
1 -5 349 0
1 -5 352 0
1 -5 353 0
1 -5 354 0
1 -1 364 0
1 -1 366 0
1 -5 366 0
1 -5 367 0
1 -5 368 0
1 -5 374 0
1 -5 375 0
1 -5 376 0
1 -5 377 0
1 -5 378 0
1 -5 379 0
1 -5 380 0
1 -5 381 0
1 -5 382 0
1 -5 383 0
1 -4 384 0
1 -5 384 0
1 -2 388 0
1 -1 396 0
1 -5 396 0
1 -1 397 0
1 -5 399 0
1 -5 400 0
1 -5 402 0
1 -5 403 0
1 -5 404 0
1 -5 406 0
1 -5 407 0
1 -5 408 0
1 -5 409 0
1 -5 410 0
1 -5 411 0
1 -5 412 0
1 -5 413 0
1 -5 416 0
1 -5 418 0
1 -5 430 0
1 -5 431 0
1 -5 433 0
1 -5 435 0
1 -5 436 0
1 -5 438 0
1 -5 439 0
1 -5 440 0
1 -5 441 0
1 -5 442 0
1 -5 443 0
1 -5 444 0
1 -5 445 0
1 -5 446 0
1 -4 447 0
1 -5 447 0
1 -5 448 0
1 -5 463 0
1 -5 464 0
1 -1 465 0
1 -5 465 0
1 -1 466 0
1 -5 466 0
1 -1 467 0
1 -5 467 0
1 -5 468 0
1 -5 469 0
1 -5 470 0
1 -5 472 0
1 -5 473 0
1 -5 474 0
1 -5 479 0
1 -5 480 0
1 -4 481 0
1 -5 481 0
1 -1 496 0
1 -5 496 0
1 -5 497 0
1 -5 499 0
1 -5 501 0
1 -5 502 0
1 -5 508 0
1 -5 509 0
1 -5 511 0
1 -5 512 0
1 -5 513 0
1 -5 514 0
1 -5 516 0
1 -4 517 0
1 -5 517 0
1 -1 530 0
1 -5 530 0
1 -5 531 0
1 -1 532 0
1 -5 532 0
1 -5 533 0
1 -5 534 0
1 -1 535 0
1 -5 535 0
1 -5 536 0
1 -5 537 0
1 -5 538 0
1 -5 541 0
1 -5 542 0
1 -5 543 0
1 -5 544 0
1 -4 550 0
1 -5 550 0
1 -5 552 0
1 -4 553 0
1 -5 553 0
1 -5 564 0
1 -5 565 0
1 -5 566 0
1 -5 567 0
1 -5 568 0
1 -5 569 0
1 -5 570 0
1 -5 571 0
1 -5 573 0
1 -5 574 0
1 -5 575 0
1 -5 576 0
1 -5 578 0
1 -5 579 0
1 -5 580 0
1 -2 589 0
1 -2 590 0
1 -4 590 0
1 -2 596 0
1 -5 598 0
1 -1 599 0
1 -5 599 0
1 -1 601 0
1 -5 601 0
1 -5 602 0
1 -5 603 0
1 -5 604 0
1 -5 605 0
1 -5 606 0
1 -5 607 0
1 -5 608 0
1 -5 609 0
1 -2 623 0
1 -2 624 0
1 -2 625 0
1 -2 626 0
1 -4 626 0
1 -2 628 0
1 -2 631 0
1 -1 632 0
1 -5 632 0
1 -5 633 0
1 -1 634 0
1 -5 634 0
1 -5 635 0
1 -1 636 0
1 -5 636 0
1 -5 637 0
1 -5 638 0
1 -5 639 0
1 -5 640 0
1 -5 641 0
1 -2 659 0
1 -2 660 0
1 -4 660 0
1 -2 661 0
1 -2 662 0
1 -2 663 0
1 -5 665 0
1 -1 666 0
1 -5 666 0
1 -1 667 0
1 -5 667 0
1 -5 668 0
1 -5 669 0
1 -1 670 0
1 -5 670 0
1 -1 671 0
1 -5 671 0
1 -5 698 0
1 -1 699 0
1 -5 699 0
1 -1 700 0
1 -5 700 0
1 -5 701 0
1 -1 702 0
1 -1 704 0
1 -1 738 0
1 -2 756 0
1 -2 758 0
1 -4 758 0
1 -1 764 0
1 -1 765 0
1 -1 767 0
1 -1 768 0
1 -1 769 0
1 -2 787 0
1 -2 793 0
1 -1 797 0
1 -1 799 0
1 -1 801 0
1 -1 802 0
1 -1 803 0
1 -2 819 0
1 -2 820 0
1 -2 821 0
1 -4 821 0
1 -1 827 0
1 -1 828 0
1 -1 829 0
1 -1 830 0
1 -1 832 0
1 -1 833 0
1 -1 834 0
1 -1 835 0
1 -2 851 0
1 -2 853 0
1 -4 853 0
1 -2 856 0
1 -2 858 0
1 -1 859 0
1 -1 860 0
1 -1 861 0
1 -1 862 0
1 -1 863 0
1 -1 864 0
1 -1 865 0
1 -1 866 0
1 -1 867 0
1 -2 883 0
1 -2 884 0
1 -2 885 0
1 -1 891 0
1 -1 892 0
1 -1 893 0
1 -1 894 0
1 -1 895 0
1 -1 896 0
1 -1 897 0
1 -1 898 0
1 -1 899 0
1 -1 900 0
1 -1 901 0
1 -1 902 0
1 -1 903 0
1 -1 904 0
1 -1 905 0
1 -1 906 0
1 -1 907 0
1 -1 908 0
1 -1 909 0
1 -1 910 0
1 -1 911 0
1 -1 912 0
1 -1 913 0
1 -1 914 0
1 -2 916 0
1 -2 919 0
1 -1 924 0
1 -1 925 0
1 -1 926 0
1 -1 927 0
1 -1 928 0
1 -1 929 0
1 -1 930 0
1 -1 931 0
1 -1 932 0
1 -1 933 0
1 -1 934 0
1 -1 935 0
1 -1 936 0
1 -1 937 0
1 -1 938 0
1 -1 946 0
1 -2 949 0
1 -2 952 0
1 -2 954 0
1 -1 971 0
1 -1 972 0
1 -1 980 0
1 -2 982 0
1 -2 983 0
1 -2 987 0
1 -2 1017 0
1 -2 1053 0
1 -2 1054 0
1 -2 1058 0
1 -2 1088 0
1 -2 1091 0
1 -2 1125 0
1 -2 1127 0
1 -2 1162 0
1 -6 1206 0
1 -6 1243 0
1 -6 1245 0
1 -6 1246 0
1 -6 1247 0
1 -6 1248 0
1 -6 1281 0
1 -6 1282 0
1 -6 1283 0
1 -6 1284 0
1 -6 1285 0
1 -6 1286 0
1 -6 1287 0
1 -6 1288 0
1 -6 1289 0
1 -6 1317 0
1 -6 1318 0
1 -6 1319 0
1 -6 1320 0
1 -6 1322 0
1 -6 1323 0
1 -6 1325 0
